311,526
558,575
654,353
937,489
1080,535
937,489
802,494
597,939
518,726
999,88
649,199
448,173
539,360
761,446
766,433
708,491
695,494
559,646
635,702
649,199
681,76
707,393
596,379
702,385
766,433
998,842
778,336
639,364
575,300
311,526
435,745
597,939
695,494
639,364
